################### Instance Number: 7
Numero di nodi nella rete: 50
Numero di archi nella rete: 475
Numero di Ordini: 300
########################### CREATION OF THE ILP MODEL ############################
Start TIME to creation of the model: 2016-07-14 14:45:13.605000
FINISH TIME to creation of the model: 2016-07-14 14:45:38.677000
Impiegati 25.0720000267 secondi.
########################### WRITE THE LP MODEL ############################
############################ INIZIO A RISOLVERE IL PROBLEMA ##########################

Gurobi Optimizer version 6.5.1 build v6.5.1rc3 (win64)
Copyright (c) 2016, Gurobi Optimization, Inc.

Read LP format model from file C:\Users\Trappola\AppData\Local\Temp\4180-pulp.lp
Reading time = 1.13 seconds
(null): 15775 rows, 142500 columns, 570000 nonzeros
Optimize a model with 15775 rows, 142500 columns and 570000 nonzeros
Coefficient statistics:
  Matrix range    [1e+00, 1e+01]
  Objective range [2e+01, 3e+03]
  Bounds range    [1e+00, 1e+00]
  RHS range       [1e+00, 2e+02]
Found heuristic solution: objective 3.02539e+06
Presolve time: 1.51s
Presolved: 15775 rows, 142500 columns, 539400 nonzeros
Variable types: 0 continuous, 142500 integer (142500 binary)

Root relaxation: objective 4.396414e+05, 5121 iterations, 0.55 seconds

    Nodes    |    Current Node    |     Objective Bounds      |     Work
 Expl Unexpl |  Obj  Depth IntInf | Incumbent    BestBd   Gap | It/Node Time

     0     0 439641.365    0  338 3025385.24 439641.365  85.5%     -    2s
H    0     0                    456528.37590 439641.365  3.70%     -    3s
H    0     0                    449026.00930 439641.365  2.09%     -    7s
H    0     0                    448710.83400 439641.365  2.02%     -   10s
     0     0 443617.255    0  412 448710.834 443617.255  1.14%     -   12s
     0     0 444399.317    0  468 448710.834 444399.317  0.96%     -   12s
     0     0 445290.425    0  535 448710.834 445290.425  0.76%     -   15s
     0     0 445666.369    0  628 448710.834 445666.369  0.68%     -   17s
     0     0 446157.453    0  727 448710.834 446157.453  0.57%     -   19s
     0     0 446330.212    0  742 448710.834 446330.212  0.53%     -   20s
     0     0 446779.406    0  677 448710.834 446779.406  0.43%     -   22s
     0     0 446850.883    0  780 448710.834 446850.883  0.41%     -   23s
     0     0 447011.648    0  808 448710.834 447011.648  0.38%     -   25s
     0     0 447011.648    0  336 448710.834 447011.648  0.38%     -   28s
H    0     0                    448628.86100 447011.648  0.36%     -   29s
     0     0 447011.648    0  438 448628.861 447011.648  0.36%     -   30s
     0     0 447011.648    0  546 448628.861 447011.648  0.36%     -   32s
     0     0 447011.648    0  611 448628.861 447011.648  0.36%     -   35s
     0     0 447011.648    0  700 448628.861 447011.648  0.36%     -   37s
H    0     0                    448618.08170 447011.648  0.36%     -   38s
     0     0 447011.648    0  867 448618.082 447011.648  0.36%     -   39s
     0     0 447076.749    0  782 448618.082 447076.749  0.34%     -   40s
H    0     0                    448561.92730 447076.749  0.33%     -   41s
     0     0 447178.529    0  789 448561.927 447178.529  0.31%     -   41s
     0     0 447231.186    0  809 448561.927 447231.186  0.30%     -   42s
     0     0 447343.187    0  746 448561.927 447343.187  0.27%     -   43s
     0     0 447343.187    0  307 448561.927 447343.187  0.27%     -   46s
     0     0 447343.187    0  417 448561.927 447343.187  0.27%     -   48s
     0     0 447343.187    0  580 448561.927 447343.187  0.27%     -   49s
     0     0 447343.187    0  678 448561.927 447343.187  0.27%     -   51s
     0     0 447343.187    0  644 448561.927 447343.187  0.27%     -   53s
     0     0 447343.187    0  718 448561.927 447343.187  0.27%     -   54s
     0     0 447343.187    0  756 448561.927 447343.187  0.27%     -   55s
     0     0 447356.150    0  724 448561.927 447356.150  0.27%     -   55s
     0     0 447422.109    0  726 448561.927 447422.109  0.25%     -   56s
     0     0 447482.422    0  743 448561.927 447482.422  0.24%     -   57s
     0     0 447509.245    0  819 448561.927 447509.245  0.23%     -   65s
     0     0 447569.797    0  769 448561.927 447569.797  0.22%     -   68s
     0     0 447569.797    0  271 448561.927 447569.797  0.22%     -   70s
     0     0 447569.797    0  419 448561.927 447569.797  0.22%     -   71s
     0     0 447569.797    0  496 448561.927 447569.797  0.22%     -   72s
     0     0 447569.797    0  537 448561.927 447569.797  0.22%     -   74s
     0     0 447569.797    0  610 448561.927 447569.797  0.22%     -   75s
     0     0 447569.797    0  682 448561.927 447569.797  0.22%     -   75s
     0     0 447569.797    0  650 448561.927 447569.797  0.22%     -   76s
     0     0 447569.797    0  730 448561.927 447569.797  0.22%     -   77s
     0     0 447587.295    0  644 448561.927 447587.295  0.22%     -   77s
     0     0 447603.139    0  675 448561.927 447603.139  0.21%     -   78s
     0     0 447621.075    0  819 448561.927 447621.075  0.21%     -   84s
H    0     0                    448424.11570 447621.075  0.18%     -   87s
     0     0 447653.201    0  807 448424.116 447653.201  0.17%     -   88s
     0     0 447653.201    0  228 448424.116 447653.201  0.17%     -   89s
     0     0 447653.201    0  352 448424.116 447653.201  0.17%     -   90s
     0     0 447653.201    0  404 448424.116 447653.201  0.17%     -   91s
     0     0 447653.201    0  526 448424.116 447653.201  0.17%     -   92s
     0     0 447653.201    0  538 448424.116 447653.201  0.17%     -   92s
     0     0 447653.201    0  633 448424.116 447653.201  0.17%     -   93s
     0     0 447653.201    0  612 448424.116 447653.201  0.17%     -   94s
     0     0 447653.201    0  659 448424.116 447653.201  0.17%     -   94s
     0     0 447653.201    0  630 448424.116 447653.201  0.17%     -   99s
     0     0 447665.855    0  733 448424.116 447665.855  0.17%     -  101s
     0     0 447679.637    0  705 448424.116 447679.637  0.17%     -  102s
     0     0 447691.598    0  747 448424.116 447691.598  0.16%     -  102s
     0     0 447698.604    0  748 448424.116 447698.604  0.16%     -  103s
     0     0 447708.678    0  698 448424.116 447708.678  0.16%     -  104s
     0     0 447709.290    0  764 448424.116 447709.290  0.16%     -  104s
     0     0 447711.856    0  699 448424.116 447711.856  0.16%     -  105s
     0     0 447713.150    0  712 448424.116 447713.150  0.16%     -  106s
     0     0 447715.262    0  682 448424.116 447715.262  0.16%     -  106s
     0     0 447716.276    0  716 448424.116 447716.276  0.16%     -  107s
     0     0 447717.767    0  699 448424.116 447717.767  0.16%     -  107s
     0     0 447717.767    0  699 448424.116 447717.767  0.16%     -  108s
     0     0 447717.767    0  196 448424.116 447717.767  0.16%     -  109s
     0     0 447717.767    0  324 448424.116 447717.767  0.16%     -  110s
     0     0 447717.767    0  373 448424.116 447717.767  0.16%     -  111s
     0     0 447717.767    0  497 448424.116 447717.767  0.16%     -  111s
     0     0 447717.767    0  482 448424.116 447717.767  0.16%     -  112s
     0     0 447717.767    0  623 448424.116 447717.767  0.16%     -  113s
     0     0 447717.767    0  595 448424.116 447717.767  0.16%     -  113s
     0     0 447717.767    0  644 448424.116 447717.767  0.16%     -  114s
     0     0 447717.767    0  649 448424.116 447717.767  0.16%     -  117s
     0     0 447717.767    0  665 448424.116 447717.767  0.16%     -  120s
     0     0 447717.767    0  667 448424.116 447717.767  0.16%     -  120s
     0     0 447717.767    0  702 448424.116 447717.767  0.16%     -  121s
     0     0 447718.673    0  692 448424.116 447718.673  0.16%     -  121s
     0     0 447726.365    0  725 448424.116 447726.365  0.16%     -  122s
     0     0 447726.365    0  725 448424.116 447726.365  0.16%     -  123s
     0     2 447726.365    0  725 448424.116 447726.365  0.16%     -  124s
     9    14 447759.217    5  627 448424.116 447739.184  0.15%   110  125s
   182   171 448138.654   46  465 448424.116 447739.184  0.15%   100  130s
   484   397 448008.017    7  559 448424.116 447749.994  0.15%  69.0  138s
   488   387 448078.821    8  590 448424.116 447749.994  0.15%  69.5  140s
   737   547 448119.292   11  590 448424.116 447818.262  0.14%  71.5  145s
  1029   744 448019.102   16  808 448424.116 447836.713  0.13%  74.4  152s
  1034   747 448320.370   14  540 448424.116 447836.713  0.13%  74.1  155s
  1038   750 448035.131   27  622 448424.116 447836.713  0.13%  73.8  160s
  1044   754 448087.180   34  695 448424.116 447836.713  0.13%  73.4  165s
  1048   757 448017.235   11  702 448424.116 447836.713  0.13%  73.1  171s
  1051   759 448254.604   70  711 448424.116 447843.996  0.13%  72.9  175s
  1056   762 448040.044    9  716 448424.116 447870.372  0.12%  72.5  180s
  1064   769 448087.180   34  513 448424.116 447870.372  0.12%  79.6  185s
  1069   772 448019.102   16  646 448424.116 447870.372  0.12%  79.3  190s
  1074   776 448320.370   14  665 448424.116 447874.610  0.12%  78.9  195s
  1077   778 448166.000   41  650 448424.116 447891.013  0.12%  78.7  200s
  1081   780 447912.412   12  677 448424.116 447912.412  0.11%  78.4  205s
  1085   783 448091.467   41  692 448424.116 447923.175  0.11%  78.1  211s
  1088   785 448017.235   11  687 448424.116 447926.852  0.11%  77.9  215s
  1089   786 448019.102   16  703 448424.116 447928.526  0.11%  77.8  223s
  1091   787 448254.604   70  686 448424.116 447929.483  0.11%  77.7  226s
  1095   790 448063.740    9  696 448424.116 447930.035  0.11%  77.4  230s
  1103   796 448025.395   13  451 448424.116 447930.035  0.11%  84.1  235s
  1110   801 448235.410   29  595 448424.116 447930.035  0.11%  83.6  240s
  1114   803 448320.370   14  648 448424.116 447930.035  0.11%  83.3  245s
  1117   805 448166.000   41  633 448424.116 447933.998  0.11%  83.0  250s
  1121   808 447937.249   12  644 448424.116 447937.249  0.11%  82.7  255s
  1124   810 448087.180   34  656 448424.116 447937.992  0.11%  82.5  265s
  1127   812 448330.415   36  657 448424.116 447939.263  0.11%  82.3  270s
  1131   815 448254.604   70  625 448424.116 447943.731  0.11%  82.0  275s
  1135   817 448063.740    9  631 448424.116 447952.158  0.11%  81.7  280s
  1140   821 448098.319   13  655 448424.116 447957.470  0.10%  81.4  286s
  1144   823 448087.180   34  686 448424.116 447958.681  0.10%  81.1  292s
  1145   824 448091.467   41  675 448424.116 447959.017  0.10%  81.0  295s
  1150   827 448235.410   29  685 448424.116 447959.181  0.10%  80.7  300s
  1156   833 448040.044    9  344 448424.116 447959.181  0.10%  86.7  305s
  1162   837 448232.196   19  561 448424.116 447959.181  0.10%  86.3  310s
  1167   840 448330.415   36  641 448424.116 447959.181  0.10%  85.9  316s
  1170   842 448235.410   29  661 448424.116 447959.486  0.10%  85.7  321s
  1173   844 448078.940    9  661 448424.116 447962.834  0.10%  85.5  326s
  1175   845 448063.740    9  665 448424.116 447967.243  0.10%  85.3  330s
  1177   847 448166.000   41  668 448424.116 447967.666  0.10%  85.2  337s
  1179   848 448125.171   27  667 448424.116 447969.318  0.10%  85.0  341s
  1183   851 448025.395   13  666 448424.116 447972.545  0.10%  84.7  346s
  1185   852 448091.467   41  663 448424.116 447972.703  0.10%  84.6  350s
  1189   855 448019.102   16  646 448424.116 447972.968  0.10%  84.3  355s
  1193   857 448078.940    9  664 448424.116 447973.896  0.10%  84.0  361s
  1198   861 448035.131   27  673 448424.116 447974.275  0.10%  83.7  367s
  1199   863 447980.714   45  646 448424.116 447980.714  0.10%  89.7  374s
  1200   864 448111.325   45  538 448424.116 447980.744  0.10%  90.0  375s
  1209   865 448044.107   49  566 448424.116 447982.385  0.10%  90.7  382s
  1355   912 448106.049   67  501 448424.116 447982.385  0.10%  94.8  390s
  1580   968 448165.539   58  468 448424.116 447999.025  0.09%   100  399s
  1880  1047 448422.019   55  382 448424.116 448072.125  0.08%   103  405s
  2185  1024 448399.714   57  502 448424.116 448107.998  0.07%   105  410s
  2493  1006 448417.468   69  473 448424.116 448134.558  0.06%   108  415s
  2860   944 448393.022   61  421 448424.116 448181.239  0.05%   109  420s
H 3297   826                    448423.87290 448206.933  0.05%   108  426s
  3679   746     cutoff   74      448423.873 448218.749  0.05%   108  431s
  4157   749     cutoff   63      448423.873 448246.913  0.04%   108  437s
  4660   739 448361.887   59  538 448423.873 448270.385  0.03%   107  442s
  5044   689     cutoff   78      448423.873 448285.733  0.03%   106  447s
  5449   673 448328.907   64  430 448423.873 448294.752  0.03%   104  450s
* 6087   557              82    448423.31580 448323.633  0.02%   101  454s
* 6088   539              82    448415.14430 448323.633  0.02%   101  454s
  6270   485     cutoff   65      448415.144 448335.009  0.02%   100  456s
H 6491   385                    448406.77850 448345.318  0.01%  98.7  457s

Cutting planes:
  Gomory: 5
  Cover: 104
  Clique: 4
  MIR: 187
  Flow cover: 57
  GUB cover: 16
  Zero half: 31

Explored 6733 nodes (706058 simplex iterations) in 457.80 seconds
Thread count was 8 (of 8 available processors)

Optimal solution found (tolerance 1.00e-04)
Best objective 4.484067785000e+05, best bound 4.483632450742e+05, gap 0.0097%

Wrote result file 'C:\Users\Trappola\AppData\Local\Temp\4180-pulp.sol'

('Status:', 'Optimal')
('Total Cost of Ingredients per can = ', 448406.77850000013)
